c turning on binary mode checking
c parsing input formula with 259840 variables and 1039924 clauses
c finished parsing, read 3037897 bytes from proof file
c detected empty clause; start verification via backward checking
c 6276 of 1039924 clauses in core                            
c 1980 of 131504 lemmas in core using 61246 resolution steps
c 0 RAT lemmas in core; 210 redundant literals in core lemmas
s VERIFIED
c verification time: 1.332 seconds
